; benchmark generated from python API
(set-info :status unknown)
(declare-datatypes ((IntState 0)) (((Mk1 (val1 Int)) (Mk2 (val2 Int)))))
 (declare-fun c_main_~i~6 () Int)
(declare-fun c_main_~j~6 () Int)
(declare-fun c_main_~k~6 () Int)
(assert
 (let (($x11 (<= c_main_~j~6 (+ (* 2 c_main_~i~6) 1))))
 (let (($x45 (<= c_main_~j~6 (+ (* 2 c_main_~i~6) 2))))
 (let (($x42 (<= c_main_~i~6 3)))
 (let (($x63 (exists ((main_~i~6_st IntState) (val!3 Int) )(let ((?x56 (val2 main_~i~6_st)))
 (let (($x106 (<= ?x56 3)))
 (let (($x54 (and (<= c_main_~j~6 (+ (* 2 ?x56) 2)) $x106 (<= ?x56 c_main_~k~6))))
 (let (($x52 (not (= main_~i~6_st (Mk1 val!3)))))
 (and $x52 $x54))))))
 ))
 (let (($x40 (<= c_main_~i~6 2)))
 (let ((?x8 (* 2 c_main_~i~6)))
 (let (($x27 (<= c_main_~j~6 ?x8)))
 (let (($x123 (exists ((v_nnf_46 Int) )(let (($x72 (<= c_main_~j~6 (+ (* 2 v_nnf_46) 2))))
 (let (($x87 (<= v_nnf_46 3)))
 (and (<= (+ v_nnf_46 2) c_main_~k~6) $x87 $x72))))
 ))
 (and (and $x40 $x123 $x27 $x42 $x45 $x11) (not (and $x40 $x63 $x42 $x45 $x11))))))))))))
(check-sat)
